CPXPARAM_Read_DataCheck                          1
Tried aggregator 1 time.
LP Presolve eliminated 1 rows and 1 columns.
Aggregator did 14 substitutions.
All rows and columns eliminated.
Presolve time = 0.00 sec. (0.01 ticks)
CPXPARAM_Read_DataCheck                          1
Tried aggregator 1 time.
LP Presolve eliminated 1 rows and 1 columns.
Aggregator did 12 substitutions.
All rows and columns eliminated.
Presolve time = 0.00 sec. (0.01 ticks)
CPXPARAM_Read_DataCheck                          1
Tried aggregator 1 time.
LP Presolve eliminated 2 rows and 2 columns.
Aggregator did 16 substitutions.
All rows and columns eliminated.
Presolve time = 0.00 sec. (0.01 ticks)
CPXPARAM_Read_DataCheck                          1
Tried aggregator 1 time.
LP Presolve eliminated 2 rows and 2 columns.
Aggregator did 15 substitutions.
All rows and columns eliminated.
Presolve time = 0.00 sec. (0.01 ticks)
CPXPARAM_Read_DataCheck                          1
Tried aggregator 1 time.
LP Presolve eliminated 1 rows and 2 columns.
Aggregator did 12 substitutions.
All rows and columns eliminated.
Presolve time = 0.00 sec. (0.01 ticks)
CPXPARAM_Read_DataCheck                          1
Tried aggregator 1 time.
LP Presolve eliminated 1 rows and 2 columns.
Aggregator did 10 substitutions.
All rows and columns eliminated.
Presolve time = 0.00 sec. (0.01 ticks)
CPXPARAM_Read_DataCheck                          1
Tried aggregator 1 time.
LP Presolve eliminated 1 rows and 2 columns.
Aggregator did 15 substitutions.
All rows and columns eliminated.
Presolve time = 0.00 sec. (0.01 ticks)
CPXPARAM_Read_DataCheck                          1
Tried aggregator 1 time.
LP Presolve eliminated 1 rows and 2 columns.
Aggregator did 14 substitutions.
All rows and columns eliminated.
Presolve time = 0.00 sec. (0.01 ticks)
CPXPARAM_Read_DataCheck                          1
Tried aggregator 1 time.
LP Presolve eliminated 1 rows and 1 columns.
Aggregator did 14 substitutions.
All rows and columns eliminated.
Presolve time = 0.00 sec. (0.01 ticks)
CPXPARAM_Read_DataCheck                          1
Tried aggregator 1 time.
LP Presolve eliminated 1 rows and 1 columns.
Aggregator did 12 substitutions.
All rows and columns eliminated.
Presolve time = 0.00 sec. (0.01 ticks)
CPXPARAM_Read_DataCheck                          1
Tried aggregator 1 time.
LP Presolve eliminated 1 rows and 1 columns.
Aggregator did 17 substitutions.
All rows and columns eliminated.
Presolve time = 0.00 sec. (0.01 ticks)
CPXPARAM_Read_DataCheck                          1
Tried aggregator 1 time.
LP Presolve eliminated 1 rows and 1 columns.
Aggregator did 16 substitutions.
All rows and columns eliminated.
Presolve time = 0.00 sec. (0.01 ticks)
CPXPARAM_Read_DataCheck                          1
Tried aggregator 1 time.
LP Presolve eliminated 1 rows and 2 columns.
Aggregator did 12 substitutions.
All rows and columns eliminated.
Presolve time = 0.00 sec. (0.01 ticks)
CPXPARAM_Read_DataCheck                          1
Tried aggregator 1 time.
LP Presolve eliminated 1 rows and 2 columns.
Aggregator did 10 substitutions.
All rows and columns eliminated.
Presolve time = 0.00 sec. (0.01 ticks)
CPXPARAM_Read_DataCheck                          1
Tried aggregator 1 time.
LP Presolve eliminated 1 rows and 2 columns.
Aggregator did 15 substitutions.
All rows and columns eliminated.
Presolve time = 0.00 sec. (0.01 ticks)
CPXPARAM_Read_DataCheck                          1
Tried aggregator 1 time.
LP Presolve eliminated 1 rows and 2 columns.
Aggregator did 14 substitutions.
All rows and columns eliminated.
Presolve time = 0.00 sec. (0.01 ticks)
CPXPARAM_Read_DataCheck                          1
Tried aggregator 1 time.
LP Presolve eliminated 1 rows and 1 columns.
Aggregator did 14 substitutions.
All rows and columns eliminated.
Presolve time = 0.00 sec. (0.01 ticks)
CPXPARAM_Read_DataCheck                          1
Tried aggregator 1 time.
LP Presolve eliminated 1 rows and 1 columns.
Aggregator did 12 substitutions.
All rows and columns eliminated.
Presolve time = 0.00 sec. (0.01 ticks)
CPXPARAM_Read_DataCheck                          1
Tried aggregator 1 time.
LP Presolve eliminated 1 rows and 1 columns.
Aggregator did 17 substitutions.
All rows and columns eliminated.
Presolve time = 0.00 sec. (0.01 ticks)
CPXPARAM_Read_DataCheck                          1
Tried aggregator 1 time.
LP Presolve eliminated 1 rows and 1 columns.
Aggregator did 16 substitutions.
All rows and columns eliminated.
Presolve time = 0.00 sec. (0.01 ticks)
CPXPARAM_Read_DataCheck                          1
Tried aggregator 1 time.
LP Presolve eliminated 1 rows and 2 columns.
Aggregator did 12 substitutions.
All rows and columns eliminated.
Presolve time = 0.00 sec. (0.01 ticks)
CPXPARAM_Read_DataCheck                          1
Tried aggregator 1 time.
LP Presolve eliminated 1 rows and 2 columns.
Aggregator did 10 substitutions.
All rows and columns eliminated.
Presolve time = 0.00 sec. (0.01 ticks)
CPXPARAM_Read_DataCheck                          1
Tried aggregator 1 time.
LP Presolve eliminated 1 rows and 2 columns.
Aggregator did 15 substitutions.
All rows and columns eliminated.
Presolve time = 0.00 sec. (0.01 ticks)
CPXPARAM_Read_DataCheck                          1
Tried aggregator 1 time.
LP Presolve eliminated 1 rows and 2 columns.
Aggregator did 14 substitutions.
All rows and columns eliminated.
Presolve time = 0.00 sec. (0.01 ticks)
CPXPARAM_Read_DataCheck                          1
Tried aggregator 1 time.
LP Presolve eliminated 1 rows and 1 columns.
Aggregator did 14 substitutions.
All rows and columns eliminated.
Presolve time = 0.00 sec. (0.01 ticks)
CPXPARAM_Read_DataCheck                          1
Tried aggregator 1 time.
LP Presolve eliminated 1 rows and 1 columns.
Aggregator did 12 substitutions.
All rows and columns eliminated.
Presolve time = 0.00 sec. (0.01 ticks)
CPXPARAM_Read_DataCheck                          1
Tried aggregator 1 time.
LP Presolve eliminated 1 rows and 1 columns.
Aggregator did 17 substitutions.
All rows and columns eliminated.
Presolve time = 0.00 sec. (0.01 ticks)
CPXPARAM_Read_DataCheck                          1
Tried aggregator 1 time.
LP Presolve eliminated 1 rows and 1 columns.
Aggregator did 16 substitutions.
All rows and columns eliminated.
Presolve time = 0.00 sec. (0.01 ticks)
CPXPARAM_Read_DataCheck                          1
Tried aggregator 1 time.
LP Presolve eliminated 1 rows and 2 columns.
Aggregator did 12 substitutions.
All rows and columns eliminated.
Presolve time = 0.00 sec. (0.01 ticks)
CPXPARAM_Read_DataCheck                          1
Tried aggregator 1 time.
LP Presolve eliminated 1 rows and 2 columns.
Aggregator did 10 substitutions.
All rows and columns eliminated.
Presolve time = 0.00 sec. (0.01 ticks)
CPXPARAM_Read_DataCheck                          1
Tried aggregator 1 time.
LP Presolve eliminated 1 rows and 2 columns.
Aggregator did 15 substitutions.
All rows and columns eliminated.
Presolve time = 0.00 sec. (0.01 ticks)
CPXPARAM_Read_DataCheck                          1
Tried aggregator 1 time.
LP Presolve eliminated 1 rows and 2 columns.
Aggregator did 14 substitutions.
All rows and columns eliminated.
Presolve time = 0.00 sec. (0.01 ticks)
CPXPARAM_Read_DataCheck                          1
Tried aggregator 1 time.
LP Presolve eliminated 1 rows and 1 columns.
Aggregator did 14 substitutions.
All rows and columns eliminated.
Presolve time = 0.00 sec. (0.01 ticks)
CPXPARAM_Read_DataCheck                          1
Tried aggregator 1 time.
LP Presolve eliminated 1 rows and 1 columns.
Aggregator did 12 substitutions.
All rows and columns eliminated.
Presolve time = 0.00 sec. (0.01 ticks)
CPXPARAM_Read_DataCheck                          1
Tried aggregator 1 time.
LP Presolve eliminated 1 rows and 1 columns.
Aggregator did 17 substitutions.
All rows and columns eliminated.
Presolve time = 0.00 sec. (0.01 ticks)
CPXPARAM_Read_DataCheck                          1
Tried aggregator 1 time.
LP Presolve eliminated 1 rows and 1 columns.
Aggregator did 16 substitutions.
All rows and columns eliminated.
Presolve time = 0.00 sec. (0.01 ticks)
CPXPARAM_Read_DataCheck                          1
Tried aggregator 1 time.
LP Presolve eliminated 1 rows and 2 columns.
Aggregator did 12 substitutions.
All rows and columns eliminated.
Presolve time = 0.00 sec. (0.01 ticks)
CPXPARAM_Read_DataCheck                          1
Tried aggregator 1 time.
LP Presolve eliminated 1 rows and 2 columns.
Aggregator did 10 substitutions.
All rows and columns eliminated.
Presolve time = 0.00 sec. (0.01 ticks)
CPXPARAM_Read_DataCheck                          1
Tried aggregator 1 time.
LP Presolve eliminated 1 rows and 2 columns.
Aggregator did 15 substitutions.
All rows and columns eliminated.
Presolve time = 0.00 sec. (0.01 ticks)
CPXPARAM_Read_DataCheck                          1
Tried aggregator 1 time.
LP Presolve eliminated 1 rows and 2 columns.
Aggregator did 14 substitutions.
All rows and columns eliminated.
Presolve time = 0.00 sec. (0.01 ticks)
CPXPARAM_Read_DataCheck                          1
Tried aggregator 1 time.
LP Presolve eliminated 1 rows and 1 columns.
Aggregator did 14 substitutions.
All rows and columns eliminated.
Presolve time = 0.00 sec. (0.01 ticks)
CPXPARAM_Read_DataCheck                          1
Tried aggregator 1 time.
LP Presolve eliminated 1 rows and 1 columns.
Aggregator did 12 substitutions.
All rows and columns eliminated.
Presolve time = 0.00 sec. (0.01 ticks)
CPXPARAM_Read_DataCheck                          1
Tried aggregator 1 time.
LP Presolve eliminated 1 rows and 1 columns.
Aggregator did 17 substitutions.
All rows and columns eliminated.
Presolve time = 0.00 sec. (0.01 ticks)
CPXPARAM_Read_DataCheck                          1
Tried aggregator 1 time.
LP Presolve eliminated 1 rows and 1 columns.
Aggregator did 16 substitutions.
All rows and columns eliminated.
Presolve time = 0.00 sec. (0.01 ticks)
CPXPARAM_Read_DataCheck                          1
Tried aggregator 1 time.
LP Presolve eliminated 1 rows and 2 columns.
Aggregator did 12 substitutions.
All rows and columns eliminated.
Presolve time = 0.00 sec. (0.01 ticks)
CPXPARAM_Read_DataCheck                          1
Tried aggregator 1 time.
LP Presolve eliminated 1 rows and 2 columns.
Aggregator did 10 substitutions.
All rows and columns eliminated.
Presolve time = 0.00 sec. (0.01 ticks)
CPXPARAM_Read_DataCheck                          1
Tried aggregator 1 time.
LP Presolve eliminated 1 rows and 2 columns.
Aggregator did 15 substitutions.
All rows and columns eliminated.
Presolve time = 0.00 sec. (0.01 ticks)
CPXPARAM_Read_DataCheck                          1
Tried aggregator 1 time.
LP Presolve eliminated 1 rows and 2 columns.
Aggregator did 14 substitutions.
All rows and columns eliminated.
Presolve time = 0.00 sec. (0.01 ticks)
CPXPARAM_Read_DataCheck                          1
Tried aggregator 1 time.
LP Presolve eliminated 1 rows and 1 columns.
Aggregator did 14 substitutions.
All rows and columns eliminated.
Presolve time = 0.00 sec. (0.01 ticks)
CPXPARAM_Read_DataCheck                          1
Tried aggregator 1 time.
LP Presolve eliminated 1 rows and 1 columns.
Aggregator did 12 substitutions.
All rows and columns eliminated.
Presolve time = 0.00 sec. (0.01 ticks)
CPXPARAM_Read_DataCheck                          1
Tried aggregator 1 time.
LP Presolve eliminated 1 rows and 1 columns.
Aggregator did 17 substitutions.
All rows and columns eliminated.
Presolve time = 0.00 sec. (0.01 ticks)
CPXPARAM_Read_DataCheck                          1
Tried aggregator 1 time.
LP Presolve eliminated 1 rows and 1 columns.
Aggregator did 16 substitutions.
All rows and columns eliminated.
Presolve time = 0.00 sec. (0.01 ticks)
CPXPARAM_Read_DataCheck                          1
Tried aggregator 1 time.
LP Presolve eliminated 1 rows and 2 columns.
Aggregator did 12 substitutions.
All rows and columns eliminated.
Presolve time = 0.00 sec. (0.01 ticks)
CPXPARAM_Read_DataCheck                          1
Tried aggregator 1 time.
LP Presolve eliminated 1 rows and 2 columns.
Aggregator did 10 substitutions.
All rows and columns eliminated.
Presolve time = 0.00 sec. (0.01 ticks)
CPXPARAM_Read_DataCheck                          1
Tried aggregator 1 time.
LP Presolve eliminated 1 rows and 2 columns.
Aggregator did 15 substitutions.
All rows and columns eliminated.
Presolve time = 0.00 sec. (0.01 ticks)
CPXPARAM_Read_DataCheck                          1
Tried aggregator 1 time.
LP Presolve eliminated 1 rows and 2 columns.
Aggregator did 14 substitutions.
All rows and columns eliminated.
Presolve time = 0.00 sec. (0.01 ticks)
CPXPARAM_Read_DataCheck                          1
Tried aggregator 1 time.
LP Presolve eliminated 1 rows and 1 columns.
Aggregator did 14 substitutions.
All rows and columns eliminated.
Presolve time = 0.00 sec. (0.01 ticks)
CPXPARAM_Read_DataCheck                          1
Tried aggregator 1 time.
LP Presolve eliminated 1 rows and 1 columns.
Aggregator did 12 substitutions.
All rows and columns eliminated.
Presolve time = 0.00 sec. (0.01 ticks)
CPXPARAM_Read_DataCheck                          1
Tried aggregator 1 time.
LP Presolve eliminated 1 rows and 1 columns.
Aggregator did 17 substitutions.
All rows and columns eliminated.
Presolve time = 0.00 sec. (0.01 ticks)
CPXPARAM_Read_DataCheck                          1
Tried aggregator 1 time.
LP Presolve eliminated 1 rows and 1 columns.
Aggregator did 16 substitutions.
All rows and columns eliminated.
Presolve time = 0.00 sec. (0.01 ticks)
CPXPARAM_Read_DataCheck                          1
Tried aggregator 1 time.
LP Presolve eliminated 1 rows and 2 columns.
Aggregator did 12 substitutions.
All rows and columns eliminated.
Presolve time = 0.00 sec. (0.01 ticks)
CPXPARAM_Read_DataCheck                          1
Tried aggregator 1 time.
LP Presolve eliminated 1 rows and 2 columns.
Aggregator did 10 substitutions.
All rows and columns eliminated.
Presolve time = 0.00 sec. (0.01 ticks)
CPXPARAM_Read_DataCheck                          1
Tried aggregator 1 time.
LP Presolve eliminated 1 rows and 2 columns.
Aggregator did 15 substitutions.
All rows and columns eliminated.
Presolve time = 0.00 sec. (0.01 ticks)
CPXPARAM_Read_DataCheck                          1
Tried aggregator 1 time.
LP Presolve eliminated 1 rows and 2 columns.
Aggregator did 14 substitutions.
All rows and columns eliminated.
Presolve time = 0.00 sec. (0.01 ticks)
CPXPARAM_Read_DataCheck                          1
Tried aggregator 1 time.
LP Presolve eliminated 1 rows and 1 columns.
Aggregator did 14 substitutions.
All rows and columns eliminated.
Presolve time = 0.00 sec. (0.01 ticks)
CPXPARAM_Read_DataCheck                          1
Tried aggregator 1 time.
LP Presolve eliminated 1 rows and 1 columns.
Aggregator did 12 substitutions.
All rows and columns eliminated.
Presolve time = 0.00 sec. (0.01 ticks)
CPXPARAM_Read_DataCheck                          1
Tried aggregator 1 time.
LP Presolve eliminated 1 rows and 1 columns.
Aggregator did 17 substitutions.
All rows and columns eliminated.
Presolve time = 0.00 sec. (0.01 ticks)
CPXPARAM_Read_DataCheck                          1
Tried aggregator 1 time.
LP Presolve eliminated 1 rows and 1 columns.
Aggregator did 16 substitutions.
All rows and columns eliminated.
Presolve time = 0.00 sec. (0.01 ticks)
CPXPARAM_Read_DataCheck                          1
Tried aggregator 1 time.
LP Presolve eliminated 1 rows and 2 columns.
Aggregator did 12 substitutions.
All rows and columns eliminated.
Presolve time = 0.00 sec. (0.01 ticks)
CPXPARAM_Read_DataCheck                          1
Tried aggregator 1 time.
LP Presolve eliminated 1 rows and 2 columns.
Aggregator did 10 substitutions.
All rows and columns eliminated.
Presolve time = 0.00 sec. (0.01 ticks)
CPXPARAM_Read_DataCheck                          1
Tried aggregator 1 time.
LP Presolve eliminated 1 rows and 2 columns.
Aggregator did 15 substitutions.
All rows and columns eliminated.
Presolve time = 0.00 sec. (0.01 ticks)
CPXPARAM_Read_DataCheck                          1
Tried aggregator 1 time.
LP Presolve eliminated 1 rows and 2 columns.
Aggregator did 14 substitutions.
All rows and columns eliminated.
Presolve time = 0.00 sec. (0.01 ticks)
CPXPARAM_Read_DataCheck                          1
Tried aggregator 1 time.
LP Presolve eliminated 1 rows and 1 columns.
Aggregator did 14 substitutions.
All rows and columns eliminated.
Presolve time = 0.00 sec. (0.01 ticks)
CPXPARAM_Read_DataCheck                          1
Tried aggregator 1 time.
LP Presolve eliminated 1 rows and 1 columns.
Aggregator did 12 substitutions.
All rows and columns eliminated.
Presolve time = 0.00 sec. (0.01 ticks)
CPXPARAM_Read_DataCheck                          1
Tried aggregator 1 time.
LP Presolve eliminated 1 rows and 1 columns.
Aggregator did 17 substitutions.
All rows and columns eliminated.
Presolve time = 0.00 sec. (0.01 ticks)
CPXPARAM_Read_DataCheck                          1
Tried aggregator 1 time.
LP Presolve eliminated 1 rows and 1 columns.
Aggregator did 16 substitutions.
All rows and columns eliminated.
Presolve time = 0.00 sec. (0.01 ticks)
CPXPARAM_Read_DataCheck                          1
Tried aggregator 1 time.
LP Presolve eliminated 1 rows and 2 columns.
Aggregator did 12 substitutions.
All rows and columns eliminated.
Presolve time = 0.00 sec. (0.01 ticks)
CPXPARAM_Read_DataCheck                          1
Tried aggregator 1 time.
LP Presolve eliminated 1 rows and 2 columns.
Aggregator did 10 substitutions.
All rows and columns eliminated.
Presolve time = 0.00 sec. (0.01 ticks)
CPXPARAM_Read_DataCheck                          1
Tried aggregator 1 time.
LP Presolve eliminated 1 rows and 2 columns.
Aggregator did 15 substitutions.
All rows and columns eliminated.
Presolve time = 0.00 sec. (0.01 ticks)
CPXPARAM_Read_DataCheck                          1
Tried aggregator 1 time.
LP Presolve eliminated 1 rows and 2 columns.
Aggregator did 14 substitutions.
All rows and columns eliminated.
Presolve time = 0.00 sec. (0.01 ticks)
CPXPARAM_Read_DataCheck                          1
Tried aggregator 1 time.
LP Presolve eliminated 1 rows and 1 columns.
Aggregator did 14 substitutions.
All rows and columns eliminated.
Presolve time = 0.00 sec. (0.01 ticks)
CPXPARAM_Read_DataCheck                          1
Tried aggregator 1 time.
LP Presolve eliminated 1 rows and 1 columns.
Aggregator did 12 substitutions.
All rows and columns eliminated.
Presolve time = 0.00 sec. (0.01 ticks)
CPXPARAM_Read_DataCheck                          1
Tried aggregator 1 time.
LP Presolve eliminated 1 rows and 1 columns.
Aggregator did 17 substitutions.
All rows and columns eliminated.
Presolve time = 0.00 sec. (0.01 ticks)
CPXPARAM_Read_DataCheck                          1
Tried aggregator 1 time.
LP Presolve eliminated 1 rows and 1 columns.
Aggregator did 16 substitutions.
All rows and columns eliminated.
Presolve time = 0.00 sec. (0.01 ticks)
CPXPARAM_Read_DataCheck                          1
Tried aggregator 1 time.
LP Presolve eliminated 1 rows and 2 columns.
Aggregator did 12 substitutions.
All rows and columns eliminated.
Presolve time = 0.00 sec. (0.01 ticks)
CPXPARAM_Read_DataCheck                          1
Tried aggregator 1 time.
LP Presolve eliminated 1 rows and 2 columns.
Aggregator did 10 substitutions.
All rows and columns eliminated.
Presolve time = 0.00 sec. (0.01 ticks)
CPXPARAM_Read_DataCheck                          1
Tried aggregator 1 time.
LP Presolve eliminated 1 rows and 2 columns.
Aggregator did 15 substitutions.
All rows and columns eliminated.
Presolve time = 0.00 sec. (0.01 ticks)
CPXPARAM_Read_DataCheck                          1
Tried aggregator 1 time.
LP Presolve eliminated 1 rows and 2 columns.
Aggregator did 14 substitutions.
All rows and columns eliminated.
Presolve time = 0.00 sec. (0.01 ticks)
CPXPARAM_Read_DataCheck                          1
Tried aggregator 1 time.
LP Presolve eliminated 1 rows and 1 columns.
Aggregator did 14 substitutions.
All rows and columns eliminated.
Presolve time = 0.00 sec. (0.01 ticks)
CPXPARAM_Read_DataCheck                          1
Tried aggregator 1 time.
LP Presolve eliminated 1 rows and 1 columns.
Aggregator did 12 substitutions.
All rows and columns eliminated.
Presolve time = 0.00 sec. (0.01 ticks)
CPXPARAM_Read_DataCheck                          1
Tried aggregator 1 time.
LP Presolve eliminated 1 rows and 1 columns.
Aggregator did 17 substitutions.
All rows and columns eliminated.
Presolve time = 0.00 sec. (0.01 ticks)
CPXPARAM_Read_DataCheck                          1
Tried aggregator 1 time.
LP Presolve eliminated 1 rows and 1 columns.
Aggregator did 16 substitutions.
All rows and columns eliminated.
Presolve time = 0.00 sec. (0.01 ticks)
CPXPARAM_Read_DataCheck                          1
Tried aggregator 1 time.
LP Presolve eliminated 1 rows and 2 columns.
Aggregator did 12 substitutions.
All rows and columns eliminated.
Presolve time = 0.00 sec. (0.01 ticks)
CPXPARAM_Read_DataCheck                          1
Tried aggregator 1 time.
LP Presolve eliminated 1 rows and 2 columns.
Aggregator did 10 substitutions.
All rows and columns eliminated.
Presolve time = 0.00 sec. (0.01 ticks)
CPXPARAM_Read_DataCheck                          1
Tried aggregator 1 time.
LP Presolve eliminated 1 rows and 2 columns.
Aggregator did 15 substitutions.
All rows and columns eliminated.
Presolve time = 0.00 sec. (0.01 ticks)
CPXPARAM_Read_DataCheck                          1
Tried aggregator 1 time.
LP Presolve eliminated 1 rows and 2 columns.
Aggregator did 14 substitutions.
All rows and columns eliminated.
Presolve time = 0.00 sec. (0.01 ticks)
=======counter========== 12
I 4
cs 100
csLevel 2
costSys 28.075758016540505
lastCostSys 28.075758016540505
costAll [559.5, 670.0, 475.6, 559.5, 558.3, 682.0, 684.4000000000001, 469.29999999999995, 473.0, 450.79999999999995, 568.6, 579.4, 802.8000000000001, 792.1999999999999, 678.1999999999999, 565.6, 456.8, 342.2, 680.0, 557.6, 564.0, 569.5, 469.29999999999995, 336.4, 350.9, 350.9, 349.8, 340.5, 343.9, 228.4, 223.1, 342.5, 446.5, 558.4, 563.6, 564.3, 680.2, 685.8000000000001, 473.8, 579.6, 466.0, 331.1, 449.5, 563.3000000000001, 466.6, 461.9, 461.9, 449.6, 795.1999999999999, 788.1]
mean 517.2080000000001
variance 20262.652736000004
